# Solution for model Objective
# Objective value = 12
M 7
W3 0
W4 0
W5 0
W9 1
W13 0
W14 0
W15 0
W22 0
W23 0
W24 0
W25 0
W26 0
W27 0
W28 1
W29 0
W30 0
W31 0
W34 0
W35 0
W39 0
W40 0
W41 0
W42 0
W43 0
W44 0
W50 0
W51 0
W52 0
W53 0
W54 0
W55 0
W63 0
W64 0
W65 0
W73 0
W74 0
W75 0
W76 0
W77 0
W78 1
W79 1
W80 0
W81 1
W0 7
W1 7
W2 7
W6 2
W7 5
W8 4
W10 2
W11 1
W12 7
W16 7
W17 6
W18 3
W19 5
W20 4
W21 1
W32 2
W33 1
W36 4
W37 2
W38 1
W45 7
W46 7
W47 7
W48 7
W49 7
W56 3
W57 6
W58 5
W59 1
W60 7
W61 4
W62 2
W66 6
W67 4
W68 5
W69 3
W70 2
W71 1
W72 7
d0_1 0
d0_2 0
d0_3 0
d0_4 0
d0_5 0
d0_6 0
d0_7 1
d0_8 0
d0_9 0
d0_0 0
d1_1 0
d1_2 0
d1_3 0
d1_4 0
d1_5 0
d1_6 0
d1_7 0
d1_8 0
d1_9 1
d1_0 0
d2_1 0
d2_2 0
d2_3 0
d2_4 1
d2_5 0
d2_6 0
d2_7 0
d2_8 0
d2_9 0
d2_0 0
d3_1 0
d3_2 0
d3_3 0
d3_4 0
d3_5 0
d3_6 1
d3_7 0
d3_8 0
d3_9 0
d3_0 0
d4_1 0
d4_2 0
d4_3 0
d4_4 0
d4_5 0
d4_6 0
d4_7 0
d4_8 1
d4_9 0
d4_0 0
d5_1 0
d5_2 0
d5_3 0
d5_4 0
d5_5 1
d5_6 0
d5_7 0
d5_8 0
d5_9 0
d5_0 0
d6_1 0
d6_2 0
d6_3 0
d6_4 0
d6_5 0
d6_6 0
d6_7 1
d6_8 0
d6_9 0
d6_0 0
d7_1 0
d7_2 0
d7_3 0
d7_4 0
d7_5 0
d7_6 0
d7_7 0
d7_8 1
d7_9 0
d7_0 0
d8_1 0
d8_2 0
d8_3 0
d8_4 0
d8_5 1
d8_6 0
d8_7 0
d8_8 0
d8_9 0
d8_0 0
d9_1 0
d9_2 0
d9_3 0
d9_4 0
d9_5 0
d9_6 0
d9_7 0
d9_8 0
d9_9 1
d9_0 0
d10_1 0
d10_2 0
d10_3 1
d10_4 0
d10_5 0
d10_6 0
d10_7 0
d10_8 0
d10_9 0
d10_0 0
d11_1 0
d11_2 0
d11_3 0
d11_4 1
d11_5 0
d11_6 0
d11_7 0
d11_8 0
d11_9 0
d11_0 0
d12_1 0
d12_2 0
d12_3 0
d12_4 0
d12_5 0
d12_6 1
d12_7 0
d12_8 0
d12_9 0
d12_0 0
d13_1 0
d13_2 0
d13_3 0
d13_4 0
d13_5 0
d13_6 0
d13_7 0
d13_8 1
d13_9 0
d13_0 0
d14_1 0
d14_2 0
d14_3 0
d14_4 0
d14_5 0
d14_6 0
d14_7 1
d14_8 0
d14_9 0
d14_0 0
d15_1 0
d15_2 0
d15_3 0
d15_4 0
d15_5 1
d15_6 0
d15_7 0
d15_8 0
d15_9 0
d15_0 0
d16_1 0
d16_2 0
d16_3 0
d16_4 0
d16_5 0
d16_6 0
d16_7 0
d16_8 0
d16_9 1
d16_0 0
d17_1 0
d17_2 0
d17_3 1
d17_4 0
d17_5 0
d17_6 0
d17_7 0
d17_8 0
d17_9 0
d17_0 0
d18_1 0
d18_2 0
d18_3 0
d18_4 1
d18_5 0
d18_6 0
d18_7 0
d18_8 0
d18_9 0
d18_0 0
d19_1 0
d19_2 0
d19_3 0
d19_4 0
d19_5 0
d19_6 0
d19_7 0
d19_8 0
d19_9 1
d19_0 0
d20_1 0
d20_2 0
d20_3 0
d20_4 0
d20_5 1
d20_6 0
d20_7 0
d20_8 0
d20_9 0
d20_0 0
d21_1 0
d21_2 0
d21_3 0
d21_4 0
d21_5 0
d21_6 0
d21_7 1
d21_8 0
d21_9 0
d21_0 0
d22_1 0
d22_2 0
d22_3 0
d22_4 0
d22_5 0
d22_6 0
d22_7 0
d22_8 1
d22_9 0
d22_0 0
d23_1 0
d23_2 0
d23_3 1
d23_4 0
d23_5 0
d23_6 0
d23_7 0
d23_8 0
d23_9 0
d23_0 0
